
n = 288; % the number of jobs
m = 48; % the number of cores

% cpi values of each job
cpi = [
2.325282,2.696614,2.334887,2.619678,1.392190,0.631348,2.144573,2.097855,2.015603,1.409936,1.980324,2.351709,2.146809,5.512685,0.508952,0.535891,0.500000,2.795663,3.221070,2.768875,0.692256,1.461671,0.850599,3.005530,2.238922,1.878706,1.230399,2.624082,1.537860,2.490031,2.488126,1.341521,1.207661,2.560045,2.630351,1.772295,2.661581,1.903492,1.202222,0.500000,2.966897,2.765809,1.983807,1.594115,2.211381,1.708300,2.138796,2.363601,2.190008,0.500000,4.039730,1.233688,3.325509,0.711065,3.246433,1.178097,4.526443,1.215753,0.964015,0.869259,0.938447,3.922001,0.843693,1.072559,1.254757,3.968543,1.395028,3.568973,0.500000,2.387857,2.902784,1.245359,2.934619,0.896481,1.068070,2.458556,1.872075,2.770198,1.696278,2.783838,1.124462,0.500000,4.435304,1.460117,2.387020,1.725110,2.412884,0.580633,2.607672,2.286681,3.584827,1.620440,2.457950,1.451603,1.254836,1.630344,0.911030,2.637150,3.191855,2.243915,1.062097,1.953952,1.323267,1.661251,1.743985,2.483133,2.380407,2.407957,2.419297,1.976477,3.898311,1.456766,1.436262,0.812887,1.069231,2.691084,2.690006,2.407382,0.500000,2.642297,2.420724,2.270204,2.332690,1.113170,2.142658,1.720554,1.818109,2.321736,0.500000,1.620556,3.110179,2.629420,0.707084,5.291542,0.500000,1.501404,0.779448,3.220522,0.500000,1.399234,2.290962,2.960281,0.653012,4.196511,2.636463,4.683930,16.861095,9.387353,10.584039,15.847121,12.419280,11.319578,8.587900,5.725279,10.322228,11.625736,2.310261,0.923478,2.291303,2.170429,2.297101,2.007429,2.101519,2.214301,1.844595,1.799315,2.205119,1.835151,2.411862,0.899128,2.560376,3.063830,0.544909,2.519894,0.713665,2.369315,5.499213,0.839979,0.500000,2.077829,5.959846,14.748534,5.498331,11.435827,10.043674,12.313787,10.871635,6.946392,11.403766,9.413298,11.204243,10.160665,2.116061,2.178397,1.633943,2.499248,1.772863,1.799488,2.095187,0.500000,3.137353,2.572484,0.589622,3.105355,0.500000,2.334760,2.641103,2.101009,1.216800,3.206328,0.714263,1.016004,4.238164,2.981031,2.232758,0.817779,2.068874,21.190714,15.559139,1.768829,12.760162,6.652282,9.399862,0.989694,12.647909,13.816932,5.739793,17.405810,0.553682,0.732482,4.945189,3.150692,2.117955,0.500000,2.161602,1.828048,1.984047,2.414933,1.331591,2.279779,1.977768,1.898255,2.041065,2.085649,1.861464,2.135799,1.840518,2.093377,3.130397,0.617474,1.881912,2.436321,1.054051,2.493313,2.408190,2.423968,2.306446,1.314032,1.102605,2.568291,2.238596,2.108252,2.517231,1.465025,1.659520,0.500000,3.224611,0.849226,3.221714,2.544929,1.444350,2.976647,2.089275,0.529936,4.449813,0.509979,2.219148,2.304500,1.966699,1.743613,1.689827,2.076212,0.917113,3.851269,2.092483,1.747901,0.810541,2.580693
];

cond = [|
true, false, false, false, false, false, false, false, false, false, false, false, false, false, false, false, false, false, false, false, false, false, false, false, false, false, false,|
self_cpi_min  <= 0.695117, all_cpi_mean  <= 9.148936, true, self_cpi_mean  <= 2.000000, true, true, true, false, false, false, false, false, false, false, false, false, false, false, false, false, false, false, false, false, false, false, false,|
self_cpi_min  <= 1.009788, all_cpi_mean  <= 9.574468, true, self_cpi_mean  <= 2.000000, all_cpi_mean  <= 20.297872, self_cpi_min  <= 0.793724, true, self_cpi_mean  <= 2.000000, true, neigh_cpi_mean  <= 10.000000, all_cpi_mean  <= 2.510638, neigh_cpi_mean  <= 2.000000, true, true, true, true, true, self_cpi_min  <= 0.632370, true, all_cpi_mean  <= 11.276596, true, self_cpi_min  <= 0.514008, true, all_cpi_mean  <= 10.510638, true, true, true,|
self_cpi_mean  <= 2.000000, all_cpi_mean  <= 9.659574, true, self_cpi_min  <= 0.708918, true, true, self_cpi_min  <= 1.094450, all_cpi_mean  <= 2.510638, true, true, self_cpi_min  <= 0.916091, true, true, false, false, false, false, false, false, false, false, false, false, false, false, false, false,|
self_cpi_min  <= 0.725710, all_cpi_mean  <= 9.574468, true, self_cpi_mean  <= 2.000000, true, neigh_cpi_mean  <= 10.000000, true, self_cpi_min  <= 0.513159, true, all_cpi_mean  <= 9.148936, neigh_cpi_mean  <= 2.000000, true, all_cpi_mean  <= 9.489362, all_cpi_mean  <= 2.851064, true, true, true, true, true, false, false, false, false, false, false, false, false,|
true, false, false, false, false, false, false, false, false, false, false, false, false, false, false, false, false, false, false, false, false, false, false, false, false, false, false,|
self_cpi_mean  <= 2.000000, self_cpi_min  <= 1.034560, true, true, neigh_cpi_mean  <= 2.000000, all_cpi_mean  <= 21.234043, neigh_cpi_mean  <= 10.000000, self_cpi_min  <= 1.574805, true, all_cpi_mean  <= 10.000000, true, true, self_cpi_min  <= 1.640685, true, true, true, all_cpi_mean  <= 9.659574, true, all_cpi_mean  <= 11.276596, true, true, false, false, false, false, false, false,|
self_cpi_min  <= 3.452812, self_cpi_min  <= 1.603116, true, true, self_cpi_mean  <= 2.000000, true, all_cpi_mean  <= 19.276596, self_cpi_mean  <= 10.000000, true, all_cpi_mean  <= 2.680851, true, true, all_cpi_mean  <= 5.404255, true, all_cpi_mean  <= 9.063830, true, all_cpi_mean  <= 12.042553, all_cpi_mean  <= 10.340426, all_cpi_mean  <= 19.021277, self_cpi_min  <= 2.609069, true, true, self_cpi_min  <= 2.458023, true, true, true, true,|
self_cpi_min  <= 2.114625, self_cpi_min  <= 1.811556, self_cpi_min  <= 4.428939, true, neigh_cpi_mean  <= 10.000000, all_cpi_mean  <= 19.021277, true, self_cpi_mean  <= 10.000000, true, all_cpi_mean  <= 2.680851, true, true, true, true, self_cpi_mean  <= 10.000000, neigh_cpi_mean  <= 2.000000, true, self_cpi_min  <= 3.394520, true, true, true, false, false, false, false, false, false,|
self_cpi_min  <= 3.298401, self_cpi_min  <= 1.842257, true, true, self_cpi_mean  <= 10.000000, all_cpi_mean  <= 19.276596, true, true, true, false, false, false, false, false, false, false, false, false, false, false, false, false, false, false, false, false, false,|
self_cpi_min  <= 2.341416, self_cpi_min  <= 1.732537, self_cpi_min  <= 3.642399, true, self_cpi_mean  <= 2.000000, self_cpi_mean  <= 10.000000, true, true, all_cpi_mean  <= 9.319149, all_cpi_mean  <= 19.276596, true, all_cpi_mean  <= 5.404255, true, all_cpi_mean  <= 12.042553, true, all_cpi_mean  <= 2.425532, true, all_cpi_mean  <= 9.319149, true, true, true, all_cpi_mean  <= 5.404255, true, true, true, false, false,|
self_cpi_mean  <= 2.000000, self_cpi_min  <= 1.014862, self_cpi_min  <= 0.693536, true, neigh_cpi_mean  <= 2.000000, neigh_cpi_mean  <= 2.000000, true, all_cpi_mean  <= 20.382979, all_cpi_mean  <= 2.851064, all_cpi_mean  <= 20.297872, true, true, self_cpi_min  <= 1.062035, true, true, true, true, true, true, false, false, false, false, false, false, false, false,|
self_cpi_mean  <= 2.000000, true, true, false, false, false, false, false, false, false, false, false, false, false, false, false, false, false, false, false, false, false, false, false, false, false, false,|
self_cpi_min  <= 3.681347, self_cpi_min  <= 1.903458, true, true, all_cpi_mean  <= 19.276596, self_cpi_mean  <= 10.000000, all_cpi_mean  <= 20.297872, all_cpi_mean  <= 10.340426, self_cpi_min  <= 2.678329, self_cpi_min  <= 2.342231, true, true, all_cpi_mean  <= 12.042553, true, true, true, true, true, true, false, false, false, false, false, false, false, false,|
self_cpi_min  <= 4.652854, self_cpi_min  <= 2.469678, true, true, all_cpi_mean  <= 20.297872, self_cpi_mean  <= 10.000000, true, true, self_cpi_min  <= 3.227995, true, true, false, false, false, false, false, false, false, false, false, false, false, false, false, false, false, false,|
self_cpi_min  <= 4.171628, self_cpi_min  <= 2.542306, true, true, all_cpi_mean  <= 10.340426, true, self_cpi_mean  <= 10.000000, all_cpi_mean  <= 20.297872, true, neigh_cpi_mean  <= 2.000000, true, true, true, false, false, false, false, false, false, false, false, false, false, false, false, false, false,|
self_cpi_min  <= 2.898146, self_cpi_min  <= 1.876420, self_cpi_min  <= 4.105475, true, self_cpi_mean  <= 10.000000, all_cpi_mean  <= 3.702128, true, true, true, self_cpi_mean  <= 10.000000, self_cpi_min  <= 4.061461, true, true, true, true, false, false, false, false, false, false, false, false, false, false, false, false,|
self_cpi_mean  <= 2.000000, self_cpi_min  <= 1.353294, self_cpi_min  <= 0.693950, true, all_cpi_mean  <= 9.829787, all_cpi_mean  <= 3.276596, true, true, neigh_cpi_mean  <= 2.000000, true, true, true, true, false, false, false, false, false, false, false, false, false, false, false, false, false, false,|
self_cpi_mean  <= 2.000000, all_cpi_mean  <= 21.148936, self_cpi_min  <= 0.592703, true, self_cpi_min  <= 1.079423, neigh_cpi_mean  <= 2.000000, true, true, true, all_cpi_mean  <= 20.723404, true, true, true, false, false, false, false, false, false, false, false, false, false, false, false, false, false,|
self_cpi_min  <= 4.494662, self_cpi_min  <= 2.706829, true, true, self_cpi_mean  <= 10.000000, all_cpi_mean  <= 19.957447, true, true, true, false, false, false, false, false, false, false, false, false, false, false, false, false, false, false, false, false, false,|
self_cpi_min  <= 4.977754, self_cpi_min  <= 2.646030, self_cpi_min  <= 6.020970, true, self_cpi_mean  <= 10.000000, all_cpi_mean  <= 10.340426, true, all_cpi_mean  <= 10.000000, true, self_cpi_mean  <= 10.000000, true, true, all_cpi_mean  <= 12.042553, true, true, self_cpi_min  <= 3.816425, all_cpi_mean  <= 20.978723, true, true, true, true, false, false, false, false, false, false,|
self_cpi_min  <= 4.832098, self_cpi_min  <= 3.250847, true, true, self_cpi_mean  <= 10.000000, true, true, false, false, false, false, false, false, false, false, false, false, false, false, false, false, false, false, false, false, false, false,|
self_cpi_min  <= 3.122455, true, self_cpi_min  <= 5.028283, all_cpi_mean  <= 3.361702, true, true, self_cpi_mean  <= 10.000000, all_cpi_mean  <= 5.404255, true, true, all_cpi_mean  <= 9.319149, true, all_cpi_mean  <= 12.042553, true, all_cpi_mean  <= 19.021277, true, true, false, false, false, false, false, false, false, false, false, false,|
self_cpi_mean  <= 2.000000, true, true, false, false, false, false, false, false, false, false, false, false, false, false, false, false, false, false, false, false, false, false, false, false, false, false,|
self_cpi_mean  <= 2.000000, self_cpi_min  <= 1.522790, self_cpi_min  <= 0.943769, true, neigh_cpi_mean  <= 2.000000, neigh_cpi_mean  <= 2.000000, true, true, all_cpi_mean  <= 10.851064, self_cpi_mean  <= 10.000000, true, true, true, all_cpi_mean  <= 20.723404, true, true, true, false, false, false, false, false, false, false, false, false, false,|
self_cpi_min  <= 3.157653, self_cpi_min  <= 2.528302, self_cpi_min  <= 5.232549, true, self_cpi_mean  <= 10.000000, self_cpi_mean  <= 10.000000, true, all_cpi_mean  <= 20.297872, true, all_cpi_mean  <= 3.361702, true, true, true, true, true, false, false, false, false, false, false, false, false, false, false, false, false,|
self_cpi_min  <= 4.791818, self_cpi_mean  <= 10.000000, true, true, self_cpi_min  <= 3.272788, true, true, false, false, false, false, false, false, false, false, false, false, false, false, false, false, false, false, false, false, false, false,|
self_cpi_min  <= 5.324689, self_cpi_min  <= 2.871345, true, true, self_cpi_mean  <= 10.000000, true, true, false, false, false, false, false, false, false, false, false, false, false, false, false, false, false, false, false, false, false, false,|
self_cpi_min  <= 3.762825, self_cpi_min  <= 1.880506, true, true, self_cpi_mean  <= 10.000000, all_cpi_mean  <= 10.340426, self_cpi_min  <= 2.494731, true, neigh_cpi_mean  <= 10.000000, true, true, all_cpi_mean  <= 20.297872, true, true, true, false, false, false, false, false, false, false, false, false, false, false, false,|
self_cpi_mean  <= 2.000000, true, self_cpi_min  <= 0.681315, neigh_cpi_mean  <= 2.000000, true, self_cpi_mean  <= 10.000000, true, true, true, false, false, false, false, false, false, false, false, false, false, false, false, false, false, false, false, false, false,|
self_cpi_mean  <= 2.000000, true, self_cpi_min  <= 0.571469, self_cpi_min  <= 0.500000, true, true, true, false, false, false, false, false, false, false, false, false, false, false, false, false, false, false, false, false, false, false, false,|
self_cpi_min  <= 3.563968, self_cpi_min  <= 2.279656, true, true, all_cpi_mean  <= 20.297872, self_cpi_mean  <= 10.000000, true, neigh_cpi_mean  <= 10.000000, true, true, true, false, false, false, false, false, false, false, false, false, false, false, false, false, false, false, false,|
self_cpi_min  <= 5.078449, self_cpi_min  <= 3.213338, true, true, self_cpi_mean  <= 10.000000, all_cpi_mean  <= 20.297872, true, true, true, false, false, false, false, false, false, false, false, false, false, false, false, false, false, false, false, false, false,|
self_cpi_min  <= 4.371315, self_cpi_min  <= 3.236502, true, true, self_cpi_mean  <= 10.000000, all_cpi_mean  <= 20.978723, true, true, true, false, false, false, false, false, false, false, false, false, false, false, false, false, false, false, false, false, false,|
self_cpi_min  <= 3.048303, self_cpi_min  <= 2.089256, self_cpi_min  <= 5.485216, true, all_cpi_mean  <= 20.297872, self_cpi_mean  <= 10.000000, true, self_cpi_mean  <= 10.000000, true, all_cpi_mean  <= 2.680851, true, true, true, true, all_cpi_mean  <= 19.021277, all_cpi_mean  <= 12.042553, true, true, true, false, false, false, false, false, false, false, false,|
self_cpi_mean  <= 2.000000, all_cpi_mean  <= 21.148936, self_cpi_min  <= 0.660986, true, self_cpi_min  <= 1.193118, neigh_cpi_mean  <= 2.000000, true, true, neigh_cpi_mean  <= 2.000000, self_cpi_min  <= 0.591084, true, self_cpi_min  <= 1.358028, true, true, true, true, true, false, false, false, false, false, false, false, false, false, false,|
self_cpi_mean  <= 2.000000, true, self_cpi_min  <= 0.899242, self_cpi_min  <= 0.689931, true, self_cpi_min  <= 0.516119, true, true, true, false, false, false, false, false, false, false, false, false, false, false, false, false, false, false, false, false, false,|
self_cpi_min  <= 3.447075, self_cpi_min  <= 1.886489, true, true, all_cpi_mean  <= 20.297872, self_cpi_mean  <= 10.000000, true, neigh_cpi_mean  <= 10.000000, true, true, true, false, false, false, false, false, false, false, false, false, false, false, false, false, false, false, false,|
self_cpi_min  <= 3.176661, true, self_cpi_min  <= 4.762639, self_cpi_mean  <= 10.000000, true, all_cpi_mean  <= 3.191489, true, true, all_cpi_mean  <= 20.297872, all_cpi_mean  <= 12.042553, true, all_cpi_mean  <= 10.340426, true, all_cpi_mean  <= 5.404255, true, true, true, false, false, false, false, false, false, false, false, false, false,|
self_cpi_min  <= 3.391960, self_cpi_mean  <= 10.000000, self_cpi_min  <= 5.442048, self_cpi_min  <= 2.188201, self_cpi_min  <= 2.499694, self_cpi_mean  <= 10.000000, true, true, all_cpi_mean  <= 20.297872, true, true, self_cpi_min  <= 4.647301, true, true, true, all_cpi_mean  <= 10.340426, true, true, true, false, false, false, false, false, false, false, false,|
self_cpi_min  <= 3.398714, self_cpi_min  <= 1.612469, true, true, self_cpi_mean  <= 10.000000, neigh_cpi_mean  <= 10.000000, self_cpi_min  <= 2.266929, all_cpi_mean  <= 20.978723, true, self_cpi_min  <= 1.781976, true, neigh_cpi_mean  <= 2.000000, true, true, true, true, self_cpi_min  <= 2.627688, true, true, false, false, false, false, false, false, false, false,|
self_cpi_mean  <= 2.000000, self_cpi_min  <= 1.150436, true, true, neigh_cpi_mean  <= 2.000000, true, all_cpi_mean  <= 11.276596, self_cpi_min  <= 1.423263, true, true, true, false, false, false, false, false, false, false, false, false, false, false, false, false, false, false, false,|
self_cpi_mean  <= 2.000000, true, self_cpi_min  <= 0.961667, self_cpi_min  <= 0.549950, true, self_cpi_min  <= 0.500433, true, neigh_cpi_mean  <= 2.000000, true, all_cpi_mean  <= 9.829787, true, true, true, false, false, false, false, false, false, false, false, false, false, false, false, false, false,|
self_cpi_min  <= 2.195184, true, true, false, false, false, false, false, false, false, false, false, false, false, false, false, false, false, false, false, false, false, false, false, false, false, false,|
self_cpi_min  <= 3.081320, self_cpi_min  <= 2.203922, true, true, self_cpi_mean  <= 10.000000, true, true, false, false, false, false, false, false, false, false, false, false, false, false, false, false, false, false, false, false, false, false,|
self_cpi_min  <= 3.047146, self_cpi_min  <= 2.145615, true, true, self_cpi_mean  <= 10.000000, all_cpi_mean  <= 20.382979, true, true, true, false, false, false, false, false, false, false, false, false, false, false, false, false, false, false, false, false, false,|
self_cpi_min  <= 2.234866, self_cpi_min  <= 1.588104, true, true, self_cpi_mean  <= 10.000000, neigh_cpi_mean  <= 10.000000, true, all_cpi_mean  <= 21.234043, true, true, true, false, false, false, false, false, false, false, false, false, false, false, false, false, false, false, false,|
self_cpi_mean  <= 2.000000, true, self_cpi_min  <= 0.699547, self_cpi_min  <= 0.631782, true, true, true, false, false, false, false, false, false, false, false, false, false, false, false, false, false, false, false, false, false, false, false |];

child = [|
-1, -2, -2, -2, -2, -2, -2, -2, -2, -2, -2, -2, -2, -2, -2, -2, -2, -2, -2, -2, -2, -2, -2, -2, -2, -2, -2,|
2, 4, -1, 6, -1, -1, -1, -2, -2, -2, -2, -2, -2, -2, -2, -2, -2, -2, -2, -2, -2, -2, -2, -2, -2, -2, -2,|
2, 4, -1, 6, 8, 10, -1, 12, -1, 14, 16, 18, -1, -1, -1, -1, -1, 20, -1, 22, -1, 24, -1, 26, -1, -1, -1,|
2, 4, -1, 6, -1, -1, 8, 10, -1, -1, 12, -1, -1, -2, -2, -2, -2, -2, -2, -2, -2, -2, -2, -2, -2, -2, -2,|
2, 4, -1, 6, -1, 8, -1, 10, -1, 12, 14, -1, 16, 18, -1, -1, -1, -1, -1, -2, -2, -2, -2, -2, -2, -2, -2,|
-1, -2, -2, -2, -2, -2, -2, -2, -2, -2, -2, -2, -2, -2, -2, -2, -2, -2, -2, -2, -2, -2, -2, -2, -2, -2, -2,|
2, 4, -1, -1, 6, 8, 10, 12, -1, 14, -1, -1, 16, -1, -1, -1, 18, -1, 20, -1, -1, -2, -2, -2, -2, -2, -2,|
2, 4, -1, -1, 6, -1, 8, 10, -1, 12, -1, -1, 14, -1, 16, -1, 18, 20, 22, 24, -1, -1, 26, -1, -1, -1, -1,|
2, 4, 6, -1, 8, 10, -1, 12, -1, 14, -1, -1, -1, -1, 16, 18, -1, 20, -1, -1, -1, -2, -2, -2, -2, -2, -2,|
2, 4, -1, -1, 6, 8, -1, -1, -1, -2, -2, -2, -2, -2, -2, -2, -2, -2, -2, -2, -2, -2, -2, -2, -2, -2, -2,|
2, 4, 6, -1, 8, 10, -1, -1, 12, 14, -1, 16, -1, 18, -1, 20, -1, 22, -1, -1, -1, 24, -1, -1, -1, -2, -2,|
2, 4, 6, -1, 8, 10, -1, 12, 14, 16, -1, -1, 18, -1, -1, -1, -1, -1, -1, -2, -2, -2, -2, -2, -2, -2, -2,|
2, -1, -1, -2, -2, -2, -2, -2, -2, -2, -2, -2, -2, -2, -2, -2, -2, -2, -2, -2, -2, -2, -2, -2, -2, -2, -2,|
2, 4, -1, -1, 6, 8, 10, 12, 14, 16, -1, -1, 18, -1, -1, -1, -1, -1, -1, -2, -2, -2, -2, -2, -2, -2, -2,|
2, 4, -1, -1, 6, 8, -1, -1, 10, -1, -1, -2, -2, -2, -2, -2, -2, -2, -2, -2, -2, -2, -2, -2, -2, -2, -2,|
2, 4, -1, -1, 6, -1, 8, 10, -1, 12, -1, -1, -1, -2, -2, -2, -2, -2, -2, -2, -2, -2, -2, -2, -2, -2, -2,|
2, 4, 6, -1, 8, 10, -1, -1, -1, 12, 14, -1, -1, -1, -1, -2, -2, -2, -2, -2, -2, -2, -2, -2, -2, -2, -2,|
2, 4, 6, -1, 8, 10, -1, -1, 12, -1, -1, -1, -1, -2, -2, -2, -2, -2, -2, -2, -2, -2, -2, -2, -2, -2, -2,|
2, 4, 6, -1, 8, 10, -1, -1, -1, 12, -1, -1, -1, -2, -2, -2, -2, -2, -2, -2, -2, -2, -2, -2, -2, -2, -2,|
2, 4, -1, -1, 6, 8, -1, -1, -1, -2, -2, -2, -2, -2, -2, -2, -2, -2, -2, -2, -2, -2, -2, -2, -2, -2, -2,|
2, 4, 6, -1, 8, 10, -1, 12, -1, 14, -1, -1, 16, -1, -1, 18, 20, -1, -1, -1, -1, -2, -2, -2, -2, -2, -2,|
2, 4, -1, -1, 6, -1, -1, -2, -2, -2, -2, -2, -2, -2, -2, -2, -2, -2, -2, -2, -2, -2, -2, -2, -2, -2, -2,|
2, -1, 4, 6, -1, -1, 8, 10, -1, -1, 12, -1, 14, -1, 16, -1, -1, -2, -2, -2, -2, -2, -2, -2, -2, -2, -2,|
2, -1, -1, -2, -2, -2, -2, -2, -2, -2, -2, -2, -2, -2, -2, -2, -2, -2, -2, -2, -2, -2, -2, -2, -2, -2, -2,|
2, 4, 6, -1, 8, 10, -1, -1, 12, 14, -1, -1, -1, 16, -1, -1, -1, -2, -2, -2, -2, -2, -2, -2, -2, -2, -2,|
2, 4, 6, -1, 8, 10, -1, 12, -1, 14, -1, -1, -1, -1, -1, -2, -2, -2, -2, -2, -2, -2, -2, -2, -2, -2, -2,|
2, 4, -1, -1, 6, -1, -1, -2, -2, -2, -2, -2, -2, -2, -2, -2, -2, -2, -2, -2, -2, -2, -2, -2, -2, -2, -2,|
2, 4, -1, -1, 6, -1, -1, -2, -2, -2, -2, -2, -2, -2, -2, -2, -2, -2, -2, -2, -2, -2, -2, -2, -2, -2, -2,|
2, 4, -1, -1, 6, 8, 10, -1, 12, -1, -1, 14, -1, -1, -1, -2, -2, -2, -2, -2, -2, -2, -2, -2, -2, -2, -2,|
2, -1, 4, 6, -1, 8, -1, -1, -1, -2, -2, -2, -2, -2, -2, -2, -2, -2, -2, -2, -2, -2, -2, -2, -2, -2, -2,|
2, -1, 4, 6, -1, -1, -1, -2, -2, -2, -2, -2, -2, -2, -2, -2, -2, -2, -2, -2, -2, -2, -2, -2, -2, -2, -2,|
2, 4, -1, -1, 6, 8, -1, 10, -1, -1, -1, -2, -2, -2, -2, -2, -2, -2, -2, -2, -2, -2, -2, -2, -2, -2, -2,|
2, 4, -1, -1, 6, 8, -1, -1, -1, -2, -2, -2, -2, -2, -2, -2, -2, -2, -2, -2, -2, -2, -2, -2, -2, -2, -2,|
2, 4, -1, -1, 6, 8, -1, -1, -1, -2, -2, -2, -2, -2, -2, -2, -2, -2, -2, -2, -2, -2, -2, -2, -2, -2, -2,|
2, 4, 6, -1, 8, 10, -1, 12, -1, 14, -1, -1, -1, -1, 16, 18, -1, -1, -1, -2, -2, -2, -2, -2, -2, -2, -2,|
2, 4, 6, -1, 8, 10, -1, -1, 12, 14, -1, 16, -1, -1, -1, -1, -1, -2, -2, -2, -2, -2, -2, -2, -2, -2, -2,|
2, -1, 4, 6, -1, 8, -1, -1, -1, -2, -2, -2, -2, -2, -2, -2, -2, -2, -2, -2, -2, -2, -2, -2, -2, -2, -2,|
2, 4, -1, -1, 6, 8, -1, 10, -1, -1, -1, -2, -2, -2, -2, -2, -2, -2, -2, -2, -2, -2, -2, -2, -2, -2, -2,|
2, -1, 4, 6, -1, 8, -1, -1, 10, 12, -1, 14, -1, 16, -1, -1, -1, -2, -2, -2, -2, -2, -2, -2, -2, -2, -2,|
2, 4, 6, 8, 10, 12, -1, -1, 14, -1, -1, 16, -1, -1, -1, 18, -1, -1, -1, -2, -2, -2, -2, -2, -2, -2, -2,|
2, 4, -1, -1, 6, 8, 10, 12, -1, 14, -1, 16, -1, -1, -1, -1, 18, -1, -1, -2, -2, -2, -2, -2, -2, -2, -2,|
2, 4, -1, -1, 6, -1, 8, 10, -1, -1, -1, -2, -2, -2, -2, -2, -2, -2, -2, -2, -2, -2, -2, -2, -2, -2, -2,|
2, -1, 4, 6, -1, 8, -1, 10, -1, 12, -1, -1, -1, -2, -2, -2, -2, -2, -2, -2, -2, -2, -2, -2, -2, -2, -2,|
2, -1, -1, -2, -2, -2, -2, -2, -2, -2, -2, -2, -2, -2, -2, -2, -2, -2, -2, -2, -2, -2, -2, -2, -2, -2, -2,|
2, 4, -1, -1, 6, -1, -1, -2, -2, -2, -2, -2, -2, -2, -2, -2, -2, -2, -2, -2, -2, -2, -2, -2, -2, -2, -2,|
2, 4, -1, -1, 6, 8, -1, -1, -1, -2, -2, -2, -2, -2, -2, -2, -2, -2, -2, -2, -2, -2, -2, -2, -2, -2, -2,|
2, 4, -1, -1, 6, 8, -1, 10, -1, -1, -1, -2, -2, -2, -2, -2, -2, -2, -2, -2, -2, -2, -2, -2, -2, -2, -2,|
2, -1, 4, 6, -1, -1, -1, -2, -2, -2, -2, -2, -2, -2, -2, -2, -2, -2, -2, -2, -2, -2, -2, -2, -2, -2, -2 |];

val = [|
1, -2, -2, -2, -2, -2, -2, -2, -2, -2, -2, -2, -2, -2, -2, -2, -2, -2, -2, -2, -2, -2, -2, -2, -2, -2, -2,|
-1, -1, 1, -1, 1, 0, 1, -2, -2, -2, -2, -2, -2, -2, -2, -2, -2, -2, -2, -2, -2, -2, -2, -2, -2, -2, -2,|
-1, -1, 1, -1, -1, -1, 1, -1, 1, -1, -1, -1, 1, 0, 1, 0, 1, -1, 1, -1, 1, -1, 0, -1, 1, 0, 1,|
-1, -1, 1, -1, 1, 0, -1, -1, 1, 0, -1, 1, 0, -2, -2, -2, -2, -2, -2, -2, -2, -2, -2, -2, -2, -2, -2,|
-1, -1, 1, -1, 1, -1, 1, -1, 1, -1, -1, 0, -1, -1, 1, 1, 0, 0, 1, -2, -2, -2, -2, -2, -2, -2, -2,|
1, -2, -2, -2, -2, -2, -2, -2, -2, -2, -2, -2, -2, -2, -2, -2, -2, -2, -2, -2, -2, -2, -2, -2, -2, -2, -2,|
-1, -1, 1, 0, -1, -1, -1, -1, 1, -1, 1, 0, -1, 0, 1, 1, -1, 0, -1, 1, 0, -2, -2, -2, -2, -2, -2,|
-1, -1, 1, 0, -1, 0, -1, -1, 1, -1, 1, 0, -1, 1, -1, 0, -1, -1, -1, -1, 1, 0, -1, 0, 1, 0, 1,|
-1, -1, -1, 0, -1, -1, 1, -1, 1, -1, 1, 0, 1, 0, -1, -1, 1, -1, 1, 0, 1, -2, -2, -2, -2, -2, -2,|
-1, -1, 1, 0, -1, -1, 1, 0, 1, -2, -2, -2, -2, -2, -2, -2, -2, -2, -2, -2, -2, -2, -2, -2, -2, -2, -2,|
-1, -1, -1, 0, -1, -1, 1, 0, -1, -1, 1, -1, 1, -1, 1, -1, 0, -1, 0, 0, 1, -1, 1, 1, 0, -2, -2,|
-1, -1, -1, 0, -1, -1, 1, -1, -1, -1, 1, 0, -1, 0, 1, 0, 1, 0, 1, -2, -2, -2, -2, -2, -2, -2, -2,|
-1, 0, 1, -2, -2, -2, -2, -2, -2, -2, -2, -2, -2, -2, -2, -2, -2, -2, -2, -2, -2, -2, -2, -2, -2, -2, -2,|
-1, -1, 1, 0, -1, -1, -1, -1, -1, -1, 1, 0, -1, 0, 1, 0, 1, 1, 0, -2, -2, -2, -2, -2, -2, -2, -2,|
-1, -1, 1, 0, -1, -1, 1, 0, -1, 0, 1, -2, -2, -2, -2, -2, -2, -2, -2, -2, -2, -2, -2, -2, -2, -2, -2,|
-1, -1, 1, 0, -1, 0, -1, -1, 1, -1, 1, 0, 1, -2, -2, -2, -2, -2, -2, -2, -2, -2, -2, -2, -2, -2, -2,|
-1, -1, -1, 0, -1, -1, 1, 0, 1, -1, -1, 0, 1, 1, 0, -2, -2, -2, -2, -2, -2, -2, -2, -2, -2, -2, -2,|
-1, -1, -1, 0, -1, -1, 1, 0, -1, 0, 1, 0, 1, -2, -2, -2, -2, -2, -2, -2, -2, -2, -2, -2, -2, -2, -2,|
-1, -1, -1, 0, -1, -1, 1, 0, 1, -1, 1, 0, 1, -2, -2, -2, -2, -2, -2, -2, -2, -2, -2, -2, -2, -2, -2,|
-1, -1, 1, 0, -1, -1, 1, 0, 1, -2, -2, -2, -2, -2, -2, -2, -2, -2, -2, -2, -2, -2, -2, -2, -2, -2, -2,|
-1, -1, -1, 0, -1, -1, 1, -1, 1, -1, 1, 0, -1, 0, 1, -1, -1, 0, 1, 0, 1, -2, -2, -2, -2, -2, -2,|
-1, -1, 1, 0, -1, 0, 1, -2, -2, -2, -2, -2, -2, -2, -2, -2, -2, -2, -2, -2, -2, -2, -2, -2, -2, -2, -2,|
-1, 0, -1, -1, 1, 0, -1, -1, 1, 1, -1, 0, -1, 1, -1, 0, 1, -2, -2, -2, -2, -2, -2, -2, -2, -2, -2,|
-1, 0, 1, -2, -2, -2, -2, -2, -2, -2, -2, -2, -2, -2, -2, -2, -2, -2, -2, -2, -2, -2, -2, -2, -2, -2, -2,|
-1, -1, -1, 0, -1, -1, 1, 0, -1, -1, 1, 0, 1, -1, 1, 0, 1, -2, -2, -2, -2, -2, -2, -2, -2, -2, -2,|
-1, -1, -1, 0, -1, -1, 1, -1, 1, -1, 1, 0, 1, 0, 1, -2, -2, -2, -2, -2, -2, -2, -2, -2, -2, -2, -2,|
-1, -1, 1, 0, -1, 0, 1, -2, -2, -2, -2, -2, -2, -2, -2, -2, -2, -2, -2, -2, -2, -2, -2, -2, -2, -2, -2,|
-1, -1, 1, 0, -1, 0, 1, -2, -2, -2, -2, -2, -2, -2, -2, -2, -2, -2, -2, -2, -2, -2, -2, -2, -2, -2, -2,|
-1, -1, 1, 0, -1, -1, -1, 0, -1, 0, 1, -1, 1, 0, 1, -2, -2, -2, -2, -2, -2, -2, -2, -2, -2, -2, -2,|
-1, 0, -1, -1, 1, -1, 1, 0, 1, -2, -2, -2, -2, -2, -2, -2, -2, -2, -2, -2, -2, -2, -2, -2, -2, -2, -2,|
-1, 0, -1, -1, 1, 1, 0, -2, -2, -2, -2, -2, -2, -2, -2, -2, -2, -2, -2, -2, -2, -2, -2, -2, -2, -2, -2,|
-1, -1, 1, 0, -1, -1, 1, -1, 1, 0, 1, -2, -2, -2, -2, -2, -2, -2, -2, -2, -2, -2, -2, -2, -2, -2, -2,|
-1, -1, 1, 0, -1, -1, 1, 0, 1, -2, -2, -2, -2, -2, -2, -2, -2, -2, -2, -2, -2, -2, -2, -2, -2, -2, -2,|
-1, -1, 1, 0, -1, -1, 1, 0, 1, -2, -2, -2, -2, -2, -2, -2, -2, -2, -2, -2, -2, -2, -2, -2, -2, -2, -2,|
-1, -1, -1, 0, -1, -1, 1, -1, 1, -1, 1, 0, 1, 0, -1, -1, 1, 1, 0, -2, -2, -2, -2, -2, -2, -2, -2,|
-1, -1, -1, 0, -1, -1, 1, 0, -1, -1, 1, -1, 1, 0, 1, 1, 0, -2, -2, -2, -2, -2, -2, -2, -2, -2, -2,|
-1, 0, -1, -1, 1, -1, 1, 1, 0, -2, -2, -2, -2, -2, -2, -2, -2, -2, -2, -2, -2, -2, -2, -2, -2, -2, -2,|
-1, -1, 1, 0, -1, -1, 1, -1, 1, 0, 1, -2, -2, -2, -2, -2, -2, -2, -2, -2, -2, -2, -2, -2, -2, -2, -2,|
-1, 0, -1, -1, 1, -1, 1, 0, -1, -1, 1, -1, 0, -1, 1, 1, 0, -2, -2, -2, -2, -2, -2, -2, -2, -2, -2,|
-1, -1, -1, -1, -1, -1, 1, 0, -1, 0, 1, -1, 1, 0, 1, -1, 1, 0, 1, -2, -2, -2, -2, -2, -2, -2, -2,|
-1, -1, 1, 0, -1, -1, -1, -1, 1, -1, 1, -1, 1, 1, 0, 0, -1, 0, 1, -2, -2, -2, -2, -2, -2, -2, -2,|
-1, -1, 1, 0, -1, 0, -1, -1, 1, 1, 0, -2, -2, -2, -2, -2, -2, -2, -2, -2, -2, -2, -2, -2, -2, -2, -2,|
-1, 0, -1, -1, 1, -1, 1, -1, 0, -1, 1, 0, 1, -2, -2, -2, -2, -2, -2, -2, -2, -2, -2, -2, -2, -2, -2,|
-1, 0, 1, -2, -2, -2, -2, -2, -2, -2, -2, -2, -2, -2, -2, -2, -2, -2, -2, -2, -2, -2, -2, -2, -2, -2, -2,|
-1, -1, 1, 0, -1, 0, 1, -2, -2, -2, -2, -2, -2, -2, -2, -2, -2, -2, -2, -2, -2, -2, -2, -2, -2, -2, -2,|
-1, -1, 1, 0, -1, -1, 1, 0, 1, -2, -2, -2, -2, -2, -2, -2, -2, -2, -2, -2, -2, -2, -2, -2, -2, -2, -2,|
-1, -1, 1, 0, -1, -1, 1, -1, 1, 0, 1, -2, -2, -2, -2, -2, -2, -2, -2, -2, -2, -2, -2, -2, -2, -2, -2,|
-1, 0, -1, -1, 1, 1, 0, -2, -2, -2, -2, -2, -2, -2, -2, -2, -2, -2, -2, -2, -2, -2, -2, -2, -2, -2, -2 |];


